N = 11;
H = 6;
T = 2;

avail = array3d(1..N, 1..H, 1..T, [5, 5, 8, 4, 10, 6, 10, 0, 7, 9, 1, 0, 10, 2, 0, 2, 8, 2, 4, 1, 9, 6, 6, 10, 0, 4, 5, 2, 6, 4, 6, 2, 10, 5, 1, 3, 8, 8, 2, 4, 2, 6, 10, 5, 4, 8, 5, 5, 5, 1, 9, 4, 9, 7, 3, 0, 4, 4, 5, 4, 0, 1, 4, 1, 4, 1, 8, 1, 2, 9, 3, 6, 1, 2, 5, 8, 10, 0, 3, 3, 0, 6, 3, 4, 8, 8, 6, 1, 0, 0, 6, 4, 7, 5, 7, 9, 10, 2, 5, 7, 5, 2, 10, 3, 6, 3, 0, 2, 8, 4, 9, 3, 4, 5, 9, 8, 3, 0, 4, 8, 2, 0, 10, 3, 6, 2, 3, 4, 5, 9, 8, 6]);

r = array2d(1..H, 1..T, [2, 3, 3, 6, 3, 2, 2, 2, 1, 0, 4, 2]);
